
Gurobi 9.5.0 (linux64) logging started Tue Nov  7 13:09:41 2023

Set parameter LogFile to value "/lustre1/scratch/348/vsc34888/JointResearch/05.Models/06.Benchmarking/D.Representative_days_based_on_RES_and_Demand/3-bus_ByStages_nc100/openStarNet_3-bus_ByStages_nc100.log"
Set parameter Method to value 2
Set parameter MIPFocus to value 1
Set parameter Presolve to value 2
Set parameter RINS to value 100
Set parameter MIPGap to value 0.01
Set parameter Threads to value 36
Set parameter TimeLimit to value 604800
Set parameter IterationLimit to value 760000000
Gurobi Optimizer version 9.5.0 build v9.5.0rc5 (linux64)
Thread count: 36 physical cores, 36 logical processors, using up to 36 threads
Optimize a model with 7026 rows, 3095 columns and 19201 nonzeros
Model fingerprint: 0x61541ce0
Variable types: 3086 continuous, 9 integer (9 binary)
Coefficient statistics:
  Matrix range     [1e-03, 2e+05]
  Objective range  [1e+00, 1e+00]
  Bounds range     [6e-06, 2e+00]
  RHS range        [6e-06, 1e+00]
Presolve removed 2826 rows and 845 columns
Presolve time: 0.02s
Presolved: 4200 rows, 2250 columns, 14841 nonzeros
Variable types: 2241 continuous, 9 integer (9 binary)
Found heuristic solution: objective 52.4424095
Root relaxation presolved: 4200 rows, 2250 columns, 14841 nonzeros

Root barrier log...

Ordering time: 0.00s

Barrier statistics:
 Dense cols : 9
 AA' NZ     : 3.720e+04
 Factor NZ  : 8.574e+04 (roughly 3 MB of memory)
 Factor Ops : 1.922e+06 (less than 1 second per iteration)
 Threads    : 36

                  Objective                Residual
Iter       Primal          Dual         Primal    Dual     Compl     Time
   0   3.70822803e+05 -2.33489616e+08  1.54e+01 1.07e+02  4.41e+04     0s
   1   2.44450510e+04 -4.66111885e+06  1.03e+00 4.12e-09  1.44e+03     0s
   2   2.39204499e+03 -1.84860373e+06  3.94e-02 1.52e-08  2.47e+02     0s
   3   1.63527596e+03 -2.28142844e+04  4.72e-04 2.23e-10  3.02e+00     0s
   4   3.89607492e+02 -3.06455986e+03  2.56e-05 2.50e-11  4.27e-01     0s
   5   1.89289788e+02 -1.55636027e+03  7.67e-06 1.24e-11  2.16e-01     0s
   6   1.04031154e+02 -5.62093610e+02  2.19e-06 4.50e-12  8.22e-02     0s
   7   7.12344071e+01 -1.53620595e+02  7.04e-07 1.43e-12  2.78e-02     0s
   8   5.34372009e+01 -9.04718004e+00  5.93e-08 1.82e-12  7.71e-03     0s
   9   4.49682746e+01  3.37009319e+01  2.93e-09 1.82e-12  1.39e-03     0s
  10   4.27653095e+01  3.81470952e+01  1.19e-09 1.82e-12  5.70e-04     0s
  11   4.24175053e+01  3.93951520e+01  8.24e-10 1.82e-12  3.73e-04     0s
  12   4.21156972e+01  3.96386967e+01  4.49e-10 1.82e-12  3.06e-04     0s
  13   4.20415180e+01  4.04751058e+01  3.05e-10 1.82e-12  1.93e-04     0s
  14   4.18644410e+01  4.06515756e+01  1.74e-10 1.82e-12  1.50e-04     0s
  15   4.18229439e+01  4.09215777e+01  1.25e-10 4.55e-13  1.11e-04     0s
  16   4.17682274e+01  4.10673788e+01  6.08e-11 1.82e-12  8.65e-05     0s
  17   4.17274414e+01  4.11711340e+01  2.74e-11 1.82e-12  6.87e-05     0s
  18   4.16815718e+01  4.13495429e+01  8.11e-12 1.82e-12  4.10e-05     0s
  19   4.16727880e+01  4.14180322e+01  5.85e-12 4.55e-13  3.15e-05     0s
  20   4.16694501e+01  4.14228911e+01  5.11e-12 9.09e-13  3.04e-05     0s
  21   4.16663177e+01  4.14585299e+01  3.35e-12 1.82e-12  2.57e-05     0s
  22   4.16632120e+01  4.14721720e+01  2.73e-12 3.64e-12  2.36e-05     0s
  23   4.16607180e+01  4.15699776e+01  1.76e-12 4.55e-13  1.12e-05     0s
  24   4.16556427e+01  4.15812625e+01  1.83e-09 4.55e-13  9.18e-06     0s
  25   4.16538527e+01  4.16056921e+01  9.28e-10 4.55e-13  5.95e-06     0s
  26   4.16533028e+01  4.16492909e+01  2.54e-10 3.64e-12  4.95e-07     0s
  27   4.16528248e+01  4.16527068e+01  4.79e-11 4.55e-13  1.46e-08     0s
  28   4.16527162e+01  4.16527151e+01  2.86e-10 9.09e-13  1.40e-10     0s
  29   4.16527152e+01  4.16527152e+01  4.73e-12 1.82e-12  1.40e-13     0s

Barrier solved model in 29 iterations and 0.23 seconds (0.09 work units)
Optimal objective 4.16527152e+01


Root relaxation: objective 4.165272e+01, 405 iterations, 0.17 seconds (0.07 work units)

    Nodes    |    Current Node    |     Objective Bounds      |     Work
 Expl Unexpl |  Obj  Depth IntInf | Incumbent    BestBd   Gap | It/Node Time

     0     0   41.65272    0    3   52.44241   41.65272  20.6%     -    0s
H    0     0                      41.7164428   41.65272  0.15%     -    0s
     0     0   41.65272    0    3   41.71644   41.65272  0.15%     -    0s

Cutting planes:
  Gomory: 1
  MIR: 93

Explored 1 nodes (767 simplex iterations) in 0.30 seconds (0.14 work units)
Thread count was 36 (of 36 available processors)

Solution count 2: 41.7164 52.4424 

Optimal solution found (tolerance 1.00e-02)
Best objective 4.171644277457e+01, best bound 4.165271520464e+01, gap 0.1528%

Gurobi 9.5.0 (linux64) logging started Tue Nov  7 13:09:42 2023

Set parameter LogFile to value "/lustre1/scratch/348/vsc34888/JointResearch/05.Models/06.Benchmarking/D.Representative_days_based_on_RES_and_Demand/3-bus_ByStages_nc100/openStarNet_3-bus_ByStages_nc100.log"
Set parameter Method to value 2
Set parameter MIPFocus to value 1
Set parameter Presolve to value 2
Set parameter RINS to value 100
Set parameter MIPGap to value 0.01
Set parameter Threads to value 36
Set parameter TimeLimit to value 604800
Set parameter IterationLimit to value 760000000
No parameters matching 'relax_integrality' found
Gurobi Optimizer version 9.5.0 build v9.5.0rc5 (linux64)
Thread count: 36 physical cores, 36 logical processors, using up to 36 threads
Optimize a model with 7026 rows, 3086 columns and 15592 nonzeros
Model fingerprint: 0xfe27c8bf
Coefficient statistics:
  Matrix range     [1e-03, 2e+05]
  Objective range  [1e+00, 1e+00]
  Bounds range     [6e-06, 2e+00]
  RHS range        [6e-06, 1e+00]
Presolve removed 6326 rows and 1846 columns
Presolve time: 0.01s
Presolved: 700 rows, 1240 columns, 2540 nonzeros

Ordering time: 0.00s

Barrier statistics:
 AA' NZ     : 1.700e+03
 Factor NZ  : 2.800e+03 (roughly 1 MB of memory)
 Factor Ops : 1.400e+04 (less than 1 second per iteration)
 Threads    : 1

                  Objective                Residual
Iter       Primal          Dual         Primal    Dual     Compl     Time
   0   4.58995049e+05 -1.63866320e+08  4.00e+01 3.47e+02  9.94e+04     0s
   1   2.30444368e+04 -2.81941330e+06  2.48e+00 6.23e-12  2.64e+03     0s
   2   2.17967302e+03 -3.35001529e+05  1.05e-02 5.46e-12  1.41e+02     0s
   3   1.33747346e+03 -6.13732968e+03  1.67e-04 3.07e-12  3.02e+00     0s
   4   2.66733257e+02 -2.23769610e+03  9.77e-06 7.09e-12  1.01e+00     0s
   5   1.29393469e+02 -4.39361930e+02  1.22e-06 3.45e-12  2.29e-01     0s
   6   7.25321435e+01 -8.30156584e+01  2.95e-07 9.09e-13  6.27e-02     0s
   7   5.21590996e+01  1.25126716e+01  9.34e-08 1.03e-12  1.60e-02     0s
   8   4.32302005e+01  3.85842374e+01  1.03e-08 9.09e-13  1.87e-03     0s
   9   4.18415161e+01  4.15248398e+01  1.74e-09 4.55e-13  1.28e-04     0s
  10   4.17209681e+01  4.17096459e+01  4.58e-09 4.55e-13  4.57e-06     0s
  11   4.17165502e+01  4.17158392e+01  1.11e-08 4.55e-13  2.87e-07     0s
  12   4.17164428e+01  4.17164424e+01  1.08e-10 4.55e-13  1.40e-10     0s

Barrier solved model in 12 iterations and 0.01 seconds (0.01 work units)
Optimal objective 4.17164428e+01

Crossover log...

      23 DPushes remaining with DInf 0.0000000e+00                 0s
       0 DPushes remaining with DInf 0.0000000e+00                 0s

     100 PPushes remaining with PInf 0.0000000e+00                 0s
       0 PPushes remaining with PInf 0.0000000e+00                 0s

  Push phase complete: Pinf 0.0000000e+00, Dinf 6.0132455e-14      0s

Iteration    Objective       Primal Inf.    Dual Inf.      Time
     126    4.1716443e+01   0.000000e+00   0.000000e+00      0s

Solved in 126 iterations and 0.01 seconds (0.01 work units)
Optimal objective  4.171644277e+01

Gurobi 9.5.0 (linux64) logging started Wed Nov 15 14:59:38 2023

Set parameter LogFile to value "/lustre1/scratch/348/vsc34888/JointResearch/05.Models/06.Benchmarking/D.Representative_days_based_on_RES_and_Demand/3-bus_ByStages_nc100/openStarNet_3-bus_ByStages_nc100.log"
Set parameter Method to value 2
Set parameter MIPFocus to value 1
Set parameter Presolve to value 2
Set parameter RINS to value 100
Set parameter MIPGap to value 0.01
Set parameter Threads to value 36
Set parameter TimeLimit to value 604800
Set parameter IterationLimit to value 760000000
Gurobi Optimizer version 9.5.0 build v9.5.0rc5 (linux64)
Thread count: 36 physical cores, 36 logical processors, using up to 36 threads
Optimize a model with 7158 rows, 3167 columns and 19840 nonzeros
Model fingerprint: 0xaa98e421
Variable types: 3158 continuous, 9 integer (9 binary)
Coefficient statistics:
  Matrix range     [1e-02, 1e+05]
  Objective range  [1e+00, 1e+00]
  Bounds range     [7e-06, 2e+00]
  RHS range        [7e-06, 1e+00]
Presolve removed 2916 rows and 874 columns
Presolve time: 0.03s
Presolved: 4242 rows, 2293 columns, 15010 nonzeros
Variable types: 2284 continuous, 9 integer (9 binary)
Found heuristic solution: objective 78.2498904
Root relaxation presolved: 4242 rows, 2293 columns, 15010 nonzeros

Root barrier log...

Ordering time: 0.00s

Barrier statistics:
 Dense cols : 9
 AA' NZ     : 3.757e+04
 Factor NZ  : 8.660e+04 (roughly 3 MB of memory)
 Factor Ops : 1.941e+06 (less than 1 second per iteration)
 Threads    : 36

                  Objective                Residual
Iter       Primal          Dual         Primal    Dual     Compl     Time
   0   3.72528415e+05 -6.04159325e+07  1.52e+01 3.53e+01  1.12e+04     0s
   1   2.55866637e+04 -1.20544884e+06  1.02e+00 1.32e-09  3.67e+02     0s
   2   3.33068072e+03 -4.79419006e+05  5.08e-02 1.96e-09  6.48e+01     0s
   3   1.44932762e+03 -1.25293735e+04  9.42e-04 8.96e-11  1.70e+00     0s
   4   2.26871594e+02 -2.04919598e+03  1.08e-05 1.57e-11  2.77e-01     0s
   5   1.69856080e+02 -6.26342862e+02  6.38e-06 4.68e-12  9.68e-02     0s
   6   1.17257939e+02 -2.19969941e+02  2.96e-06 1.85e-12  4.10e-02     0s
   7   9.09560459e+01 -2.11885997e+01  1.09e-06 4.90e-13  1.36e-02     0s
   8   7.53373768e+01  5.14863373e+01  2.71e-07 4.55e-13  2.90e-03     0s
   9   6.79440586e+01  6.28967887e+01  5.37e-08 3.41e-13  6.14e-04     0s
  10   6.75151248e+01  6.48152025e+01  4.27e-08 4.55e-13  3.28e-04     0s
  11   6.66448380e+01  6.58974953e+01  1.13e-08 4.55e-13  9.09e-05     0s
  12   6.63367731e+01  6.61333019e+01  3.41e-09 4.55e-13  2.47e-05     0s
  13   6.62656116e+01  6.61490410e+01  1.74e-09 4.55e-13  1.42e-05     0s
  14   6.62122219e+01  6.61815083e+01  5.25e-10 4.55e-13  3.74e-06     0s
  15   6.61883420e+01  6.61877423e+01  7.05e-10 4.55e-13  7.29e-08     0s
  16   6.61881312e+01  6.61881306e+01  1.80e-09 4.55e-13  7.29e-11     0s

Barrier solved model in 16 iterations and 0.16 seconds (0.07 work units)
Optimal objective 6.61881312e+01


Root relaxation: objective 6.618813e+01, 409 iterations, 0.10 seconds (0.05 work units)

    Nodes    |    Current Node    |     Objective Bounds      |     Work
 Expl Unexpl |  Obj  Depth IntInf | Incumbent    BestBd   Gap | It/Node Time

     0     0   66.18813    0    3   78.24989   66.18813  15.4%     -    0s
H    0     0                      67.0211069   66.18813  1.24%     -    0s
     0     0   66.18813    0    2   67.02111   66.18813  1.24%     -    0s
H    0     0                      66.4164209   66.18813  0.34%     -    0s

Cutting planes:
  Gomory: 2
  MIR: 64

Explored 1 nodes (661 simplex iterations) in 0.26 seconds (0.13 work units)
Thread count was 36 (of 36 available processors)

Solution count 3: 66.4164 67.0211 78.2499 

Optimal solution found (tolerance 1.00e-02)
Best objective 6.641642094839e+01, best bound 6.618813099934e+01, gap 0.3437%

Gurobi 9.5.0 (linux64) logging started Wed Nov 15 14:59:39 2023

Set parameter LogFile to value "/lustre1/scratch/348/vsc34888/JointResearch/05.Models/06.Benchmarking/D.Representative_days_based_on_RES_and_Demand/3-bus_ByStages_nc100/openStarNet_3-bus_ByStages_nc100.log"
Set parameter Method to value 2
Set parameter MIPFocus to value 1
Set parameter Presolve to value 2
Set parameter RINS to value 100
Set parameter MIPGap to value 0.01
Set parameter Threads to value 36
Set parameter TimeLimit to value 604800
Set parameter IterationLimit to value 760000000
No parameters matching 'relax_integrality' found
Gurobi Optimizer version 9.5.0 build v9.5.0rc5 (linux64)
Thread count: 36 physical cores, 36 logical processors, using up to 36 threads
Optimize a model with 7158 rows, 3158 columns and 16195 nonzeros
Model fingerprint: 0x390ea918
Coefficient statistics:
  Matrix range     [1e-02, 1e+05]
  Objective range  [1e+00, 1e+00]
  Bounds range     [7e-06, 2e+00]
  RHS range        [7e-06, 2e+00]
Presolve removed 6451 rows and 1783 columns
Presolve time: 0.00s
Presolved: 707 rows, 1375 columns, 2688 nonzeros

Ordering time: 0.00s

Barrier statistics:
 AA' NZ     : 1.717e+03
 Factor NZ  : 2.828e+03 (roughly 1 MB of memory)
 Factor Ops : 1.414e+04 (less than 1 second per iteration)
 Threads    : 1

                  Objective                Residual
Iter       Primal          Dual         Primal    Dual     Compl     Time
   0   7.29741589e+05 -6.02270669e+07  3.49e+01 1.51e+02  3.30e+04     0s
   1   4.02130763e+04 -8.94087150e+05  2.30e+00 2.05e-12  8.78e+02     0s
   2   2.81176275e+03 -1.48346930e+05  3.76e-02 3.18e-12  6.17e+01     0s
   3   1.29681798e+03 -4.09461276e+03  5.47e-04 9.80e-13  1.97e+00     0s
   4   2.41819275e+02 -7.02395916e+02  8.24e-06 1.66e-12  3.43e-01     0s
   5   1.69510813e+02 -3.48336011e+02  3.74e-06 1.21e-12  1.88e-01     0s
   6   1.20595525e+02 -1.11740713e+02  1.70e-06 3.89e-13  8.45e-02     0s
   7   8.26220817e+01 -1.43464325e+01  5.25e-07 2.27e-13  3.53e-02     0s
   8   7.00519885e+01  5.54571012e+01  6.38e-08 3.47e-13  5.31e-03     0s
   9   6.65398882e+01  6.60313379e+01  2.21e-10 4.55e-13  1.85e-04     0s
  10   6.64172015e+01  6.63905808e+01  1.58e-11 4.55e-13  9.68e-06     0s
  11   6.64164675e+01  6.64136582e+01  1.45e-11 9.09e-13  1.02e-06     0s
  12   6.64164218e+01  6.64164175e+01  2.46e-11 2.27e-13  1.56e-09     0s
  13   6.64164209e+01  6.64164209e+01  1.52e-11 2.27e-13  1.56e-15     0s

Barrier solved model in 13 iterations and 0.01 seconds (0.01 work units)
Optimal objective 6.64164209e+01

Crossover log...

       0 DPushes remaining with DInf 0.0000000e+00                 0s

     101 PPushes remaining with PInf 0.0000000e+00                 0s
       0 PPushes remaining with PInf 0.0000000e+00                 0s

  Push phase complete: Pinf 0.0000000e+00, Dinf 1.3200552e-13      0s

Iteration    Objective       Primal Inf.    Dual Inf.      Time
     104    6.6416421e+01   0.000000e+00   0.000000e+00      0s

Solved in 104 iterations and 0.01 seconds (0.01 work units)
Optimal objective  6.641642095e+01

Gurobi 10.0.0 (win64) logging started Thu Nov 30 21:45:56 2023

Set parameter LogFile to value "C:\Users\ealvarezq\Documents\GitHub\Comillas\Models\JointResearch\05. Models\06.Benchmarking\D.Representative_days_based_on_RES_and_Demand\3-bus_ByStages_nc100/openStarNet_3-bus_ByStages_nc100.log"
Set parameter Method to value 2
Set parameter MIPFocus to value 1
Set parameter Presolve to value 2
Set parameter RINS to value 100
Set parameter MIPGap to value 0.01
Set parameter Threads to value 9
Set parameter TimeLimit to value 259200
Set parameter IterationLimit to value 760000000
Gurobi Optimizer version 10.0.0 build v10.0.0rc2 (win64)

CPU model: Intel(R) Core(TM) i7-8700 CPU @ 3.20GHz, instruction set [SSE2|AVX|AVX2]
Thread count: 6 physical cores, 12 logical processors, using up to 9 threads

Optimize a model with 6670 rows, 2911 columns and 17799 nonzeros
Model fingerprint: 0x32339c24
Variable types: 2902 continuous, 9 integer (9 binary)
Coefficient statistics:
  Matrix range     [1e-02, 8e+02]
  Objective range  [1e+00, 1e+00]
  Bounds range     [6e-06, 2e+00]
  RHS range        [6e-06, 1e+00]
Presolve removed 2630 rows and 913 columns
Presolve time: 0.02s
Presolved: 4040 rows, 1998 columns, 13200 nonzeros
Variable types: 1989 continuous, 9 integer (9 binary)
Found heuristic solution: objective 77.7121203
Root relaxation presolved: 4040 rows, 1998 columns, 13200 nonzeros

Root barrier log...

Ordering time: 0.00s

Barrier statistics:
 Dense cols : 9
 AA' NZ     : 3.030e+04
 Factor NZ  : 7.317e+04 (roughly 3 MB of memory)
 Factor Ops : 1.388e+06 (less than 1 second per iteration)
 Threads    : 9

                  Objective                Residual
Iter       Primal          Dual         Primal    Dual     Compl     Time
   0   7.83322210e+04 -2.62566281e+06  3.78e-01 1.04e+02  1.07e+03     0s
   1   6.08562606e+03 -8.47277290e+05  2.35e-02 1.04e-10  1.30e+02     0s
   2   1.97161546e+03 -4.78632841e+04  4.19e-04 2.69e-10  6.58e+00     0s
   3   4.90777919e+02 -2.55298278e+03  2.82e-06 1.50e-11  3.99e-01     0s
   4   1.62745797e+02 -6.94769564e+02  1.12e-07 4.10e-12  1.12e-01     0s
   5   1.02400328e+02 -1.85487687e+02  2.96e-08 2.73e-12  3.77e-02     0s
   6   8.18473122e+01 -1.23431352e+01  6.76e-09 1.15e-12  1.23e-02     0s
   7   7.13374345e+01  5.90168759e+01  1.94e-10 1.64e-12  1.61e-03     0s
   8   6.77465445e+01  6.41183372e+01  4.80e-11 1.35e-12  4.75e-04     0s
   9   6.75132999e+01  6.57720705e+01  3.81e-11 1.49e-12  2.28e-04     0s
  10   6.70378740e+01  6.65638402e+01  4.25e-12 1.13e-12  6.21e-05     0s
  11   6.70010441e+01  6.65641081e+01  3.35e-12 1.06e-12  5.73e-05     0s
  12   6.69282887e+01  6.66039777e+01  1.76e-12 1.26e-12  4.25e-05     0s
  13   6.68912596e+01  6.68115949e+01  7.52e-13 9.81e-13  1.04e-05     0s
  14   6.68749554e+01  6.68545964e+01  3.72e-13 1.14e-12  2.67e-06     0s
  15   6.68592589e+01  6.68583956e+01  1.12e-13 1.30e-12  1.13e-07     0s
  16   6.68585246e+01  6.68585239e+01  1.67e-09 1.07e-12  1.13e-10     0s
  17   6.68585240e+01  6.68585240e+01  1.81e-12 2.09e-12  1.13e-13     0s

Barrier solved model in 17 iterations and 0.09 seconds (0.06 work units)
Optimal objective 6.68585240e+01


Root relaxation: objective 6.685852e+01, 308 iterations, 0.06 seconds (0.04 work units)

    Nodes    |    Current Node    |     Objective Bounds      |     Work
 Expl Unexpl |  Obj  Depth IntInf | Incumbent    BestBd   Gap | It/Node Time

     0     0   66.85852    0    3   77.71212   66.85852  14.0%     -    0s
H    0     0                      67.2993732   66.87253  0.63%     -    0s
     0     0   66.87253    0    2   67.29937   66.87253  0.63%     -    0s

Cutting planes:
  MIR: 15

Explored 1 nodes (624 simplex iterations) in 0.20 seconds (0.11 work units)
Thread count was 9 (of 12 available processors)

Solution count 2: 67.2994 77.7121 

Optimal solution found (tolerance 1.00e-02)
Best objective 6.729937320701e+01, best bound 6.687253157554e+01, gap 0.6342%

Gurobi 10.0.0 (win64) logging started Thu Nov 30 21:45:57 2023

Set parameter LogFile to value "C:\Users\ealvarezq\Documents\GitHub\Comillas\Models\JointResearch\05. Models\06.Benchmarking\D.Representative_days_based_on_RES_and_Demand\3-bus_ByStages_nc100/openStarNet_3-bus_ByStages_nc100.log"
Set parameter Method to value 2
Set parameter MIPFocus to value 1
Set parameter Presolve to value 2
Set parameter RINS to value 100
Set parameter MIPGap to value 0.01
Set parameter Threads to value 9
Set parameter TimeLimit to value 259200
Set parameter IterationLimit to value 760000000
No parameters matching 'relax_integrality' found
Gurobi Optimizer version 10.0.0 build v10.0.0rc2 (win64)

CPU model: Intel(R) Core(TM) i7-8700 CPU @ 3.20GHz, instruction set [SSE2|AVX|AVX2]
Thread count: 6 physical cores, 12 logical processors, using up to 9 threads

Optimize a model with 6670 rows, 2902 columns and 14154 nonzeros
Model fingerprint: 0x5aba66e4
Coefficient statistics:
  Matrix range     [1e-02, 8e+02]
  Objective range  [1e+00, 1e+00]
  Bounds range     [6e-06, 2e+00]
  RHS range        [6e-06, 2e+00]
Presolve removed 6165 rows and 1822 columns
Presolve time: 0.00s
Presolved: 505 rows, 1080 columns, 2090 nonzeros

Ordering time: 0.00s

Barrier statistics:
 AA' NZ     : 1.010e+03
 Factor NZ  : 1.515e+03 (roughly 1 MB of memory)
 Factor Ops : 5.555e+03 (less than 1 second per iteration)
 Threads    : 1

                  Objective                Residual
Iter       Primal          Dual         Primal    Dual     Compl     Time
   0   5.54471410e+04 -3.49066121e+05  3.18e-01 3.03e+02  7.74e+02     0s
   1   5.56131091e+03 -1.77502084e+05  1.94e-02 6.37e-12  1.09e+02     0s
   2   2.03491820e+03 -1.40613328e+04  3.03e-04 3.18e-12  7.53e+00     0s
   3   4.00446622e+02 -7.77777245e+02  3.26e-06 1.18e-11  5.46e-01     0s
   4   1.73549853e+02 -8.47274279e+01  5.40e-07 2.73e-12  1.20e-01     0s
   5   9.36127042e+01  2.51702591e+01  1.57e-07 2.73e-12  3.17e-02     0s
   6   7.52427607e+01  5.94548938e+01  4.55e-08 1.37e-12  7.31e-03     0s
   7   6.89067751e+01  6.62991746e+01  8.92e-09 3.06e-12  1.21e-03     0s
   8   6.73047433e+01  6.72762514e+01  1.04e-16 1.52e-12  1.32e-05     0s
   9   6.72994437e+01  6.72990473e+01  1.87e-16 1.53e-12  1.84e-07     0s
  10   6.72993733e+01  6.72993729e+01  2.78e-17 1.28e-12  1.89e-10     0s

Barrier solved model in 10 iterations and 0.01 seconds (0.01 work units)
Optimal objective 6.72993733e+01

Crossover log...

       0 DPushes remaining with DInf 0.0000000e+00                 0s

       0 PPushes remaining with PInf 0.0000000e+00                 0s

  Push phase complete: Pinf 0.0000000e+00, Dinf 5.4090066e-13      0s

Iteration    Objective       Primal Inf.    Dual Inf.      Time
       3    6.7299373e+01   0.000000e+00   0.000000e+00      0s

Solved in 3 iterations and 0.01 seconds (0.01 work units)
Optimal objective  6.729937321e+01
